Results/Experiment 1 Results/New Benchmark/RES_60/output_p1_0.00_p2_0.00_n_60_15.txt
solutions: 373248 nodes: 678154  modelTime: 115  solveTime: 2311  totalTime: 2434  modelSize: 7853  readTime: 8 matchingSize: 30
